\ LP format - for model browsing. Use MPS format to capture full model detail.
Minimize
  0.4 A + 0.8 B
Subject To
 Calories_Requirement: 800 A + 1000 B >= 8000
 Vitamins_Requirement: 0.6666666666666666 A - 0.3333333333333333 B <= 0
Bounds
End
